% Logging successfully configured
%%%mzn-stat: initTime=0.053680254
%%%mzn-stat: objective=887
%%%mzn-stat: nodes=1013
%%%mzn-stat: restarts=0
%%%mzn-stat: peakDepth=261
%%%mzn-stat: solveTime=0.020274007
%%%mzn-stat: variables=521
%%%mzn-stat: propagators=366
%%%mzn-stat: failures=102
%%%mzn-stat: propagations=6236
%%%mzn-stat: nogoods=102
%%%mzn-stat: numAtomicConstraintsPropagated=0
%%%mzn-stat: allDifferentNumber1TotalHallSetSize=292
%%%mzn-stat: allDifferentNumber1NumberOfConflicts=102
%%%mzn-stat: allDifferentNumber1MaxHallSetSize=20
%%%mzn-stat: allDifferentNumber1PropagationsTotal=1306
%%%mzn-stat: allDifferentNumber1PropagationsThatFoundConflict=102
%%%mzn-stat: circuitNumber2PropagationsThatFoundConflict=0
%%%mzn-stat: circuitNumber2TotalFixedEdgesAtConflict=0
%%%mzn-stat: circuitNumber2NumberOfConflicts=0
%%%mzn-stat: circuitNumber2PropagationsThatPruned=1
%%%mzn-stat: circuitNumber2PropagationsTotal=674
%%%mzn-stat: AverageConflictSize=2.7058823529411766
%%%mzn-stat: NumUnitNogoodsLearned=0
%%%mzn-stat: AverageLearnedNogoodLength=2.696078431372549
%%%mzn-stat: AverageBacktrackAmount=0
%%%mzn-stat: AverageLbd=2.696078431372549
%%%mzn-stat: 2AutonomousSearchNumBackupCalled=241
%%%mzn-stat: 2AutonomousSearchNumPredicatesRemoved=0
%%%mzn-stat: 2AutonomousSearchNumCalls=242
%%%mzn-stat: 2AutonomousSearchNumPredicatesAdded=150
%%%mzn-stat: 2AutonomousSearchAverageSizeOfHeap=0.6198347107438017
%%%mzn-stat: 2AutonomousSearchNumAssignedPredicatesEncountered=150
%%%mzn-stat-end
maxleg = 887;
succ = array1d(1..20,[2, 3, 4, 5, 6, 7, 9, 1, 10, 11, 13, 8, 14, 16, 17, 19, 18, 20, 15, 12]);
% time elapsed: 1.48 s
----------
%%%mzn-stat: initTime=0.053680254
%%%mzn-stat: objective=737
%%%mzn-stat: nodes=1561
%%%mzn-stat: restarts=0
%%%mzn-stat: peakDepth=261
%%%mzn-stat: solveTime=0.022853835
%%%mzn-stat: variables=521
%%%mzn-stat: propagators=366
%%%mzn-stat: failures=152
%%%mzn-stat: propagations=8795
%%%mzn-stat: nogoods=152
%%%mzn-stat: numAtomicConstraintsPropagated=0
%%%mzn-stat: allDifferentNumber1TotalHallSetSize=412
%%%mzn-stat: allDifferentNumber1NumberOfConflicts=152
%%%mzn-stat: allDifferentNumber1MaxHallSetSize=20
%%%mzn-stat: allDifferentNumber1PropagationsTotal=1796
%%%mzn-stat: allDifferentNumber1PropagationsThatFoundConflict=152
%%%mzn-stat: circuitNumber2PropagationsThatFoundConflict=0
%%%mzn-stat: circuitNumber2TotalFixedEdgesAtConflict=0
%%%mzn-stat: circuitNumber2NumberOfConflicts=0
%%%mzn-stat: circuitNumber2PropagationsThatPruned=7
%%%mzn-stat: circuitNumber2PropagationsTotal=939
%%%mzn-stat: AverageConflictSize=2.638157894736842
%%%mzn-stat: NumUnitNogoodsLearned=0
%%%mzn-stat: AverageLearnedNogoodLength=2.6315789473684212
%%%mzn-stat: AverageBacktrackAmount=0
%%%mzn-stat: AverageLbd=2.6184210526315788
%%%mzn-stat: 2AutonomousSearchNumBackupCalled=481
%%%mzn-stat: 2AutonomousSearchNumPredicatesRemoved=0
%%%mzn-stat: 2AutonomousSearchNumCalls=483
%%%mzn-stat: 2AutonomousSearchNumPredicatesAdded=232
%%%mzn-stat: 2AutonomousSearchAverageSizeOfHeap=0.6666666666666666
%%%mzn-stat: 2AutonomousSearchNumAssignedPredicatesEncountered=322
%%%mzn-stat-end
maxleg = 737;
succ = array1d(1..20,[2, 3, 4, 5, 8, 7, 1, 12, 6, 9, 10, 13, 14, 16, 17, 19, 18, 20, 15, 11]);
% time elapsed: 1.48 s
----------
%%%mzn-stat: initTime=0.053680254
%%%mzn-stat: objective=728
%%%mzn-stat: nodes=1934
%%%mzn-stat: restarts=0
%%%mzn-stat: peakDepth=261
%%%mzn-stat: solveTime=0.024167652
%%%mzn-stat: variables=521
%%%mzn-stat: propagators=366
%%%mzn-stat: failures=168
%%%mzn-stat: propagations=10236
%%%mzn-stat: nogoods=168
%%%mzn-stat: numAtomicConstraintsPropagated=0
%%%mzn-stat: allDifferentNumber1TotalHallSetSize=463
%%%mzn-stat: allDifferentNumber1NumberOfConflicts=168
%%%mzn-stat: allDifferentNumber1MaxHallSetSize=20
%%%mzn-stat: allDifferentNumber1PropagationsTotal=2013
%%%mzn-stat: allDifferentNumber1PropagationsThatFoundConflict=168
%%%mzn-stat: circuitNumber2PropagationsThatFoundConflict=0
%%%mzn-stat: circuitNumber2TotalFixedEdgesAtConflict=0
%%%mzn-stat: circuitNumber2NumberOfConflicts=0
%%%mzn-stat: circuitNumber2PropagationsThatPruned=9
%%%mzn-stat: circuitNumber2PropagationsTotal=1064
%%%mzn-stat: AverageConflictSize=2.7202380952380953
%%%mzn-stat: NumUnitNogoodsLearned=0
%%%mzn-stat: AverageLearnedNogoodLength=2.7142857142857144
%%%mzn-stat: AverageBacktrackAmount=0
%%%mzn-stat: AverageLbd=2.6904761904761907
%%%mzn-stat: 2AutonomousSearchNumBackupCalled=716
%%%mzn-stat: 2AutonomousSearchNumPredicatesRemoved=0
%%%mzn-stat: 2AutonomousSearchNumCalls=719
%%%mzn-stat: 2AutonomousSearchNumPredicatesAdded=262
%%%mzn-stat: 2AutonomousSearchAverageSizeOfHeap=0.6981919332406119
%%%mzn-stat: 2AutonomousSearchNumAssignedPredicatesEncountered=502
%%%mzn-stat-end
maxleg = 728;
succ = array1d(1..20,[2, 3, 4, 8, 12, 7, 1, 5, 6, 9, 10, 13, 14, 16, 17, 19, 18, 20, 15, 11]);
% time elapsed: 1.48 s
----------
%%%mzn-stat: initTime=0.053680254
%%%mzn-stat: objective=673
%%%mzn-stat: nodes=2246
%%%mzn-stat: restarts=0
%%%mzn-stat: peakDepth=261
%%%mzn-stat: solveTime=0.025110848
%%%mzn-stat: variables=521
%%%mzn-stat: propagators=366
%%%mzn-stat: failures=187
%%%mzn-stat: propagations=11347
%%%mzn-stat: nogoods=187
%%%mzn-stat: numAtomicConstraintsPropagated=0
%%%mzn-stat: allDifferentNumber1TotalHallSetSize=536
%%%mzn-stat: allDifferentNumber1NumberOfConflicts=187
%%%mzn-stat: allDifferentNumber1MaxHallSetSize=20
%%%mzn-stat: allDifferentNumber1PropagationsTotal=2182
%%%mzn-stat: allDifferentNumber1PropagationsThatFoundConflict=187
%%%mzn-stat: circuitNumber2PropagationsThatFoundConflict=0
%%%mzn-stat: circuitNumber2TotalFixedEdgesAtConflict=0
%%%mzn-stat: circuitNumber2NumberOfConflicts=0
%%%mzn-stat: circuitNumber2PropagationsThatPruned=10
%%%mzn-stat: circuitNumber2PropagationsTotal=1136
%%%mzn-stat: AverageConflictSize=2.839572192513369
%%%mzn-stat: NumUnitNogoodsLearned=0
%%%mzn-stat: AverageLearnedNogoodLength=2.834224598930481
%%%mzn-stat: AverageBacktrackAmount=0
%%%mzn-stat: AverageLbd=2.770053475935829
%%%mzn-stat: 2AutonomousSearchNumBackupCalled=939
%%%mzn-stat: 2AutonomousSearchNumPredicatesRemoved=0
%%%mzn-stat: 2AutonomousSearchNumCalls=943
%%%mzn-stat: 2AutonomousSearchNumPredicatesAdded=297
%%%mzn-stat: 2AutonomousSearchAverageSizeOfHeap=0.7306468716861082
%%%mzn-stat: 2AutonomousSearchNumAssignedPredicatesEncountered=689
%%%mzn-stat-end
maxleg = 673;
succ = array1d(1..20,[2, 3, 4, 8, 12, 7, 1, 13, 6, 9, 10, 14, 15, 16, 19, 17, 18, 20, 5, 11]);
% time elapsed: 1.48 s
----------
%%%mzn-stat: initTime=0.053680254
%%%mzn-stat: objective=641
%%%mzn-stat: nodes=2527
%%%mzn-stat: restarts=0
%%%mzn-stat: peakDepth=261
%%%mzn-stat: solveTime=0.025895845
%%%mzn-stat: variables=521
%%%mzn-stat: propagators=366
%%%mzn-stat: failures=200
%%%mzn-stat: propagations=12364
%%%mzn-stat: nogoods=200
%%%mzn-stat: numAtomicConstraintsPropagated=0
%%%mzn-stat: allDifferentNumber1TotalHallSetSize=601
%%%mzn-stat: allDifferentNumber1NumberOfConflicts=200
%%%mzn-stat: allDifferentNumber1MaxHallSetSize=20
%%%mzn-stat: allDifferentNumber1PropagationsTotal=2300
%%%mzn-stat: allDifferentNumber1PropagationsThatFoundConflict=200
%%%mzn-stat: circuitNumber2PropagationsThatFoundConflict=0
%%%mzn-stat: circuitNumber2TotalFixedEdgesAtConflict=0
%%%mzn-stat: circuitNumber2NumberOfConflicts=0
%%%mzn-stat: circuitNumber2PropagationsThatPruned=11
%%%mzn-stat: circuitNumber2PropagationsTotal=1198
%%%mzn-stat: AverageConflictSize=2.99
%%%mzn-stat: NumUnitNogoodsLearned=0
%%%mzn-stat: AverageLearnedNogoodLength=3.005
%%%mzn-stat: AverageBacktrackAmount=0
%%%mzn-stat: AverageLbd=2.895
%%%mzn-stat: 2AutonomousSearchNumBackupCalled=1153
%%%mzn-stat: 2AutonomousSearchNumPredicatesRemoved=0
%%%mzn-stat: 2AutonomousSearchNumCalls=1158
%%%mzn-stat: 2AutonomousSearchNumPredicatesAdded=345
%%%mzn-stat: 2AutonomousSearchAverageSizeOfHeap=0.7806563039723662
%%%mzn-stat: 2AutonomousSearchNumAssignedPredicatesEncountered=904
%%%mzn-stat-end
maxleg = 641;
succ = array1d(1..20,[2, 3, 4, 8, 12, 7, 1, 13, 6, 9, 10, 14, 16, 20, 5, 19, 11, 17, 15, 18]);
% time elapsed: 1.48 s
----------
%%%mzn-stat: initTime=0.053680254
%%%mzn-stat: objective=614
%%%mzn-stat: nodes=2804
%%%mzn-stat: restarts=0
%%%mzn-stat: peakDepth=261
%%%mzn-stat: solveTime=0.026704852
%%%mzn-stat: variables=521
%%%mzn-stat: propagators=366
%%%mzn-stat: failures=209
%%%mzn-stat: propagations=13439
%%%mzn-stat: nogoods=209
%%%mzn-stat: numAtomicConstraintsPropagated=0
%%%mzn-stat: allDifferentNumber1TotalHallSetSize=644
%%%mzn-stat: allDifferentNumber1NumberOfConflicts=209
%%%mzn-stat: allDifferentNumber1MaxHallSetSize=20
%%%mzn-stat: allDifferentNumber1PropagationsTotal=2413
%%%mzn-stat: allDifferentNumber1PropagationsThatFoundConflict=209
%%%mzn-stat: circuitNumber2PropagationsThatFoundConflict=0
%%%mzn-stat: circuitNumber2TotalFixedEdgesAtConflict=0
%%%mzn-stat: circuitNumber2NumberOfConflicts=0
%%%mzn-stat: circuitNumber2PropagationsThatPruned=12
%%%mzn-stat: circuitNumber2PropagationsTotal=1266
%%%mzn-stat: AverageConflictSize=3.1148325358851676
%%%mzn-stat: NumUnitNogoodsLearned=0
%%%mzn-stat: AverageLearnedNogoodLength=3.1626794258373208
%%%mzn-stat: AverageBacktrackAmount=0
%%%mzn-stat: AverageLbd=2.985645933014354
%%%mzn-stat: 2AutonomousSearchNumBackupCalled=1361
%%%mzn-stat: 2AutonomousSearchNumPredicatesRemoved=0
%%%mzn-stat: 2AutonomousSearchNumCalls=1367
%%%mzn-stat: 2AutonomousSearchNumPredicatesAdded=394
%%%mzn-stat: 2AutonomousSearchAverageSizeOfHeap=0.825164594001463
%%%mzn-stat: 2AutonomousSearchNumAssignedPredicatesEncountered=1128
%%%mzn-stat-end
maxleg = 614;
succ = array1d(1..20,[2, 3, 4, 8, 14, 7, 1, 12, 6, 9, 10, 13, 16, 20, 5, 19, 11, 17, 15, 18]);
% time elapsed: 1.48 s
----------
%%%mzn-stat: initTime=0.053680254
%%%mzn-stat: objective=586
%%%mzn-stat: nodes=3033
%%%mzn-stat: restarts=0
%%%mzn-stat: peakDepth=261
%%%mzn-stat: solveTime=0.02724188
%%%mzn-stat: variables=521
%%%mzn-stat: propagators=366
%%%mzn-stat: failures=213
%%%mzn-stat: propagations=14194
%%%mzn-stat: nogoods=213
%%%mzn-stat: numAtomicConstraintsPropagated=0
%%%mzn-stat: allDifferentNumber1TotalHallSetSize=668
%%%mzn-stat: allDifferentNumber1NumberOfConflicts=213
%%%mzn-stat: allDifferentNumber1MaxHallSetSize=20
%%%mzn-stat: allDifferentNumber1PropagationsTotal=2466
%%%mzn-stat: allDifferentNumber1PropagationsThatFoundConflict=213
%%%mzn-stat: circuitNumber2PropagationsThatFoundConflict=0
%%%mzn-stat: circuitNumber2TotalFixedEdgesAtConflict=0
%%%mzn-stat: circuitNumber2NumberOfConflicts=0
%%%mzn-stat: circuitNumber2PropagationsThatPruned=12
%%%mzn-stat: circuitNumber2PropagationsTotal=1298
%%%mzn-stat: AverageConflictSize=3.215962441314554
%%%mzn-stat: NumUnitNogoodsLearned=0
%%%mzn-stat: AverageLearnedNogoodLength=3.3051643192488265
%%%mzn-stat: AverageBacktrackAmount=0
%%%mzn-stat: AverageLbd=3.103286384976526
%%%mzn-stat: 2AutonomousSearchNumBackupCalled=1555
%%%mzn-stat: 2AutonomousSearchNumPredicatesRemoved=0
%%%mzn-stat: 2AutonomousSearchNumCalls=1562
%%%mzn-stat: 2AutonomousSearchNumPredicatesAdded=448
%%%mzn-stat: 2AutonomousSearchAverageSizeOfHeap=0.8834827144686299
%%%mzn-stat: 2AutonomousSearchNumAssignedPredicatesEncountered=1380
%%%mzn-stat-end
maxleg = 586;
succ = array1d(1..20,[2, 3, 4, 8, 15, 7, 1, 12, 6, 9, 10, 13, 14, 16, 17, 19, 18, 20, 5, 11]);
% time elapsed: 1.48 s
----------
%%%mzn-stat: initTime=0.053680254
%%%mzn-stat: objective=583
%%%mzn-stat: nodes=3289
%%%mzn-stat: restarts=0
%%%mzn-stat: peakDepth=261
%%%mzn-stat: solveTime=0.028241757
%%%mzn-stat: variables=521
%%%mzn-stat: propagators=366
%%%mzn-stat: failures=225
%%%mzn-stat: propagations=15406
%%%mzn-stat: nogoods=225
%%%mzn-stat: numAtomicConstraintsPropagated=0
%%%mzn-stat: allDifferentNumber1TotalHallSetSize=701
%%%mzn-stat: allDifferentNumber1NumberOfConflicts=225
%%%mzn-stat: allDifferentNumber1MaxHallSetSize=20
%%%mzn-stat: allDifferentNumber1PropagationsTotal=2587
%%%mzn-stat: allDifferentNumber1PropagationsThatFoundConflict=225
%%%mzn-stat: circuitNumber2PropagationsThatFoundConflict=0
%%%mzn-stat: circuitNumber2TotalFixedEdgesAtConflict=0
%%%mzn-stat: circuitNumber2NumberOfConflicts=0
%%%mzn-stat: circuitNumber2PropagationsThatPruned=19
%%%mzn-stat: circuitNumber2PropagationsTotal=1366
%%%mzn-stat: AverageConflictSize=3.2533333333333334
%%%mzn-stat: NumUnitNogoodsLearned=0
%%%mzn-stat: AverageLearnedNogoodLength=3.3377777777777777
%%%mzn-stat: AverageBacktrackAmount=0
%%%mzn-stat: AverageLbd=3.111111111111111
%%%mzn-stat: 2AutonomousSearchNumBackupCalled=1739
%%%mzn-stat: 2AutonomousSearchNumPredicatesRemoved=0
%%%mzn-stat: 2AutonomousSearchNumCalls=1747
%%%mzn-stat: 2AutonomousSearchNumPredicatesAdded=485
%%%mzn-stat: 2AutonomousSearchAverageSizeOfHeap=0.9370349170005724
%%%mzn-stat: 2AutonomousSearchNumAssignedPredicatesEncountered=1637
%%%mzn-stat-end
maxleg = 583;
succ = array1d(1..20,[2, 3, 4, 8, 15, 7, 1, 12, 10, 6, 9, 13, 14, 16, 17, 19, 18, 20, 5, 11]);
% time elapsed: 1.48 s
----------
==========
% time elapsed: 2.07 s
%%%mzn-stat: initTime=0.053680254
%%%mzn-stat: objective=583
%%%mzn-stat: nodes=13465
%%%mzn-stat: restarts=0
%%%mzn-stat: peakDepth=261
%%%mzn-stat: solveTime=0.624221658
%%%mzn-stat: variables=521
%%%mzn-stat: propagators=366
%%%mzn-stat: failures=10365
%%%mzn-stat: propagations=385365
%%%mzn-stat: nogoods=10365
%%%mzn-stat: numAtomicConstraintsPropagated=0
%%%mzn-stat: allDifferentNumber1TotalHallSetSize=192786
%%%mzn-stat: allDifferentNumber1NumberOfConflicts=10362
%%%mzn-stat: allDifferentNumber1MaxHallSetSize=20
%%%mzn-stat: allDifferentNumber1PropagationsTotal=43286
%%%mzn-stat: allDifferentNumber1PropagationsThatFoundConflict=10362
%%%mzn-stat: circuitNumber2PropagationsThatFoundConflict=0
%%%mzn-stat: circuitNumber2TotalFixedEdgesAtConflict=0
%%%mzn-stat: circuitNumber2NumberOfConflicts=0
%%%mzn-stat: circuitNumber2PropagationsThatPruned=5116
%%%mzn-stat: circuitNumber2PropagationsTotal=22339
%%%mzn-stat: AverageConflictSize=21.172600096478533
%%%mzn-stat: NumUnitNogoodsLearned=1
%%%mzn-stat: AverageLearnedNogoodLength=26.73970091654607
%%%mzn-stat: AverageBacktrackAmount=0
%%%mzn-stat: AverageLbd=4.962759286058852
%%%mzn-stat: 2AutonomousSearchNumBackupCalled=1739
%%%mzn-stat: 2AutonomousSearchNumPredicatesRemoved=0
%%%mzn-stat: 2AutonomousSearchNumCalls=1747
%%%mzn-stat: 2AutonomousSearchNumPredicatesAdded=965
%%%mzn-stat: 2AutonomousSearchAverageSizeOfHeap=0.9370349170005724
%%%mzn-stat: 2AutonomousSearchNumAssignedPredicatesEncountered=1637
%%%mzn-stat-end
